webassembly/ejemplos_dzn/11/folder11_json_44.dzn
TERM = { '.', 's(5)', 's(2)', 's(4)', 'local_0', 'local_1', 's(8)', 's(6)', 's(1)', 's(0)', 's(7)', 's(3)', 'in_0'};
null = '.';
s = 11;
n = 10;
ndeps = 4;
max_registers_sz = 5;
NR = 2;
registers = [|'local_0', 's(8)', |'local_1', 's(1)'|];
dependencies = [|'call[function_index(0)]_1', 'i32.store_4', |'i32.store_4', 'i32.load_7', |'i32.load_7', 'call[function_index(1)]_8', |'call[function_index(1)]_8', 'i32.load16_u_9'|];
GET_ENUM = { GET1, GET2, GET3, GET4, GET5, GET6, GET7};
SET_ENUM = { SET1, SET2, SET3, SET4, SET5, SET6, SET7};
TEE_ENUM = { TEE1, TEE2, TEE3, TEE4, TEE5, TEE6, TEE7};
N = 6;
OP = { 'call[function_index(0)]_1', 'call[function_index(1)]_8', 'i32.store_4', 'i32.sub_0', 'i32.load_7', 'i32.load16_u_9' };
in_ops = [0, 1, 2, 2, 1, 1 ];
out_ops = [3, 3, 0, 1, 1, 1 ];
in1 = ['.', 's(4)', 'local_0', 's(0)', 's(3)', 's(7)' ];
in2 = ['.', '.', 's(2)', 'in_0', '.', '.' ];
in3 = ['.', '.', '.', '.', '.', '.' ];
out1 = ['s(2)', 's(7)', '.', 's(3)', 's(4)', 's(8)' ];
out2 = ['s(1)', 's(6)', '.', '.', '.', '.' ];
out3 = ['s(0)', 's(5)', '.', '.', '.', '.' ];
comm = [false, false, false, false, false, false ];
gas = [1, 1, 1, 1, 1, 1 ];
sz = [1, 1, 1, 1, 1, 1 ];
stor = [true, true, true, false, false, false ];
lb = [ 1, 1, 1, 1, 1, 1 ];
ub = [ 11, 11, 11, 11, 11, 11 ];
startstack = [ 'in_0', null, null, null, null, null, null, null, null, null ];
endstack = [ 's(8)', 's(6)', 's(5)', null, null, null, null, null, null, null ];
