webassembly/ejemplos_results/folder11_json_44.txt
=====UNSATISFIABLE=====
% time elapsed: 0.27 s
